p tw 24 36
1 4
1 6
1 21
2 3
2 10
2 16
3 6
3 17
4 15
4 17
5 8
5 13
5 17
6 14
7 15
7 21
7 22
8 18
8 20
9 18
9 20
9 24
10 12
10 14
11 13
11 16
11 24
12 14
12 21
13 15
16 20
18 23
19 22
19 23
19 24
22 23
